12      2       
10      12      
0       0       0       3       2       3       4       
5       0       0       3       6       7       10      
4       0       0       1       5       
1       0       9       3       7       8       10      
10      6       0       3       6       7       10      
4       0       9       1       8       
6       0       4       2       9       11      
1       0       0       2       9       11      
4       10      0       1       12      
5       8       0       1       12      
5       0       0       1       12      
0       0       0       0       
